* ENCODING=ISO-8859-1
NAME          CPLEX
ROWS
 N  obj1    
 G  c1      
 G  c2      
 G  c3      
 G  c4      
 G  c5      
 G  c6      
 G  c7      
 G  c8      
 G  c9      
 G  c10     
 G  c11     
 G  c12     
 G  c13     
 G  c14     
 G  c15     
 G  c16     
 G  c17     
 G  c18     
 G  c19     
 G  c20     
 G  c21     
 G  c22     
 G  c23     
 G  c24     
 G  c25     
COLUMNS
    MARK0000  'MARKER'                 'INTORG'
    x1        obj1                            1
    x1        c6                            583
    x2        obj1                            1
    x2        c19                           947
    x3        obj1                            1
    x3        c7                            126
    x4        obj1                            1
    x4        c13                           386
    x4        c16                           640
    x4        c18                           932
    x4        c22                           755
    x5        obj1                            1
    x5        c9                            291
    x5        c10                           449
    x5        c11                           702
    x6        obj1                            1
    x6        c13                           221
    x6        c15                           280
    x6        c25                           271
    x7        obj1                            1
    x7        c2                            998
    x7        c5                            611
    x7        c19                           791
    x8        obj1                            1
    x8        c7                            403
    x8        c14                           249
    x9        obj1                            1
    x9        c10                           411
    x9        c17                           416
    x9        c18                           271
    x9        c20                           834
    x10       obj1                            1
    x10       c1                            492
    x10       c5                            238
    x10       c6                            559
    x10       c13                           845
    x10       c18                           251
    x10       c19                           871
    x11       obj1                            1
    x11       c4                            203
    x11       c6                            244
    x11       c17                           642
    x11       c22                           340
    x12       obj1                            1
    x12       c11                           256
    x13       obj1                            1
    x13       c13                           793
    x13       c14                           720
    x14       obj1                            1
    x14       c18                           920
    x14       c21                           496
    x14       c25                           185
    x15       obj1                            1
    x15       c6                            407
    x15       c13                           223
    x15       c16                           488
    x15       c23                           209
    x16       obj1                            1
    x16       c3                            228
    x16       c8                            399
    x17       obj1                            1
    x17       c7                            725
    x18       obj1                            1
    x18       c10                           701
    x18       c20                           572
    x19       obj1                            1
    x20       obj1                            1
    x20       c3                            822
    x20       c6                            920
    x20       c11                           407
    x20       c15                           752
    x20       c19                           268
    x20       c22                           186
    x21       obj1                            1
    x21       c2                            765
    x21       c3                            504
    x21       c5                            735
    x21       c21                           919
    x22       obj1                            1
    x22       c7                            438
    x22       c17                           321
    x22       c18                           936
    x22       c22                           602
    x23       obj1                            1
    x23       c6                            370
    x23       c15                           995
    x23       c17                           336
    x23       c18                           251
    x23       c23                           429
    x23       c24                           413
    x24       obj1                            1
    x24       c9                            329
    x24       c15                           484
    x24       c24                           529
    x25       obj1                            1
    x25       c15                           458
    x25       c19                           213
    x25       c21                           169
    x26       obj1                            1
    x26       c24                           766
    x27       obj1                            1
    x27       c8                            272
    x27       c11                           987
    x27       c12                           966
    x28       obj1                            1
    x28       c2                            977
    x28       c23                           588
    x29       obj1                            1
    x29       c16                           562
    x29       c25                           329
    x30       obj1                            1
    x30       c9                            490
    x30       c16                           573
    x31       obj1                            1
    x31       c3                            484
    x31       c10                           542
    x31       c13                           555
    x32       obj1                            1
    x32       c10                           925
    x32       c11                           347
    x33       obj1                            1
    x33       c1                            773
    x34       obj1                            1
    x35       obj1                            1
    x35       c14                           765
    x35       c22                           913
    x35       c23                           375
    x36       obj1                            1
    x36       c3                            930
    x36       c12                           763
    x36       c18                           444
    x36       c21                           265
    x37       obj1                            1
    x38       obj1                            1
    x38       c4                            327
    x38       c17                           547
    x38       c25                           997
    x39       obj1                            1
    x39       c2                            850
    x39       c21                           196
    x39       c25                           222
    x40       obj1                            1
    x40       c12                           102
    x40       c24                           459
    x41       obj1                            1
    x41       c16                           745
    x42       obj1                            1
    x42       c1                            127
    x42       c10                           105
    x42       c16                           598
    x42       c23                           591
    x43       obj1                            1
    x43       c5                            896
    x43       c11                           717
    x44       obj1                            1
    x44       c7                            416
    x44       c16                           118
    x45       obj1                            1
    x46       obj1                            1
    x46       c3                            828
    x46       c4                            925
    x46       c6                            376
    x46       c19                           655
    x47       obj1                            1
    x47       c8                            920
    x47       c9                            826
    x47       c11                           355
    x48       obj1                            1
    x48       c3                            608
    x48       c10                           534
    x49       obj1                            1
    x49       c25                           251
    x50       obj1                            1
    x50       c4                            244
    x50       c5                            657
    x50       c20                           378
    x50       c25                           544
    MARK0001  'MARKER'                 'INTEND'
RHS
    rhs       c1                            696
    rhs       c2                           1795
    rhs       c3                           2202
    rhs       c4                            850
    rhs       c5                           1569
    rhs       c6                           1730
    rhs       c7                           1054
    rhs       c8                            796
    rhs       c9                            968
    rhs       c10                          1834
    rhs       c11                          1886
    rhs       c12                           916
    rhs       c13                          1512
    rhs       c14                           867
    rhs       c15                          1485
    rhs       c16                          1862
    rhs       c17                          1131
    rhs       c18                          2003
    rhs       c19                          1873
    rhs       c20                           892
    rhs       c21                          1023
    rhs       c22                          1398
    rhs       c23                          1096
    rhs       c24                          1084
    rhs       c25                          1400
BOUNDS
 LI bnd       x1        0
 LI bnd       x2        0
 LI bnd       x3        0
 LI bnd       x4        0
 LI bnd       x5        0
 LI bnd       x6        0
 LI bnd       x7        0
 LI bnd       x8        0
 LI bnd       x9        0
 LI bnd       x10       0
 LI bnd       x11       0
 LI bnd       x12       0
 LI bnd       x13       0
 LI bnd       x14       0
 LI bnd       x15       0
 LI bnd       x16       0
 LI bnd       x17       0
 LI bnd       x18       0
 LI bnd       x19       0
 LI bnd       x20       0
 LI bnd       x21       0
 LI bnd       x22       0
 LI bnd       x23       0
 LI bnd       x24       0
 LI bnd       x25       0
 LI bnd       x26       0
 LI bnd       x27       0
 LI bnd       x28       0
 LI bnd       x29       0
 LI bnd       x30       0
 LI bnd       x31       0
 LI bnd       x32       0
 LI bnd       x33       0
 LI bnd       x34       0
 LI bnd       x35       0
 LI bnd       x36       0
 LI bnd       x37       0
 LI bnd       x38       0
 LI bnd       x39       0
 LI bnd       x40       0
 LI bnd       x41       0
 LI bnd       x42       0
 LI bnd       x43       0
 LI bnd       x44       0
 LI bnd       x45       0
 LI bnd       x46       0
 LI bnd       x47       0
 LI bnd       x48       0
 LI bnd       x49       0
 LI bnd       x50       0
ENDATA
